\Generated using SimplexCpp @ 28-02-2020 18:43:05
\Well behaved

Minimize
 obj: -1 x1 -5 x2 
Subject To
 c1: +1 x1 +10 x2 +1 x3 <= 10
 c2: +1 x1 +1 x4 <= 2
Bounds
 x1 >= 0 x2 >= 0 x3 >= 0 x4 >= 0

End